5,30,303,283,259,253,249,231,225,216,196,174,145,137,132,129,122,111,103,94,87,86,79,79,79,73,66,63,52,34,33,28,498,661,595,696,732,66,96,11,57,29,37,11,21,31,15,98,47,8,72,69,15,42,48,27,55,88,55,55,30,47,39,6,91,24,43,47,59,78,85,40,58,37,39,93,81,97,60,89,60,77,45,47,18,71,40,18,75,77,70,15,31,19,28,86,65,51,4,19,68,34,3,38,9,65,82,0,68,20,74,43,54,65,53,32,89,4,12,86,89,1,60,15,47,2,90,76,73,68,29,98,10,94,59,56,18,66,80,71,4,65,47,25,98,36,24,23,29,20,86,90,4,23,55,66,52,61,88,77,59,93,23,98,3,54,18,97,53,29,7,77,77,24,38,71,59,47,52,56,39,85,36,67,55,43,38